
n_res = 4;
rcap = [14, 14, 276, 270];
rtype = [1, 1, 2, 2];
n_tasks = 100;
modes =  [{1, 2, 3}, {4, 5, 6}, {7, 8, 9}, {10, 11, 12}, {13, 14, 15}, {16, 17, 18}, {19, 20, 21}, {22, 23, 24}, {25, 26, 27}, {28, 29, 30}, {31, 32, 33}, {34, 35, 36}, {37, 38, 39}, {40, 41, 42}, {43, 44, 45}, {46, 47, 48}, {49, 50, 51}, {52, 53, 54}, {55, 56, 57}, {58, 59, 60}, {61, 62, 63}, {64, 65, 66}, {67, 68, 69}, {70, 71, 72}, {73, 74, 75}, {76, 77, 78}, {79, 80, 81}, {82, 83, 84}, {85, 86, 87}, {88, 89, 90}, {91, 92, 93}, {94, 95, 96}, {97, 98, 99}, {100, 101, 102}, {103, 104, 105}, {106, 107, 108}, {109, 110, 111}, {112, 113, 114}, {115, 116, 117}, {118, 119, 120}, {121, 122, 123}, {124, 125, 126}, {127, 128, 129}, {130, 131, 132}, {133, 134, 135}, {136, 137, 138}, {139, 140, 141}, {142, 143, 144}, {145, 146, 147}, {148, 149, 150}, {151, 152, 153}, {154, 155, 156}, {157, 158, 159}, {160, 161, 162}, {163, 164, 165}, {166, 167, 168}, {169, 170, 171}, {172, 173, 174}, {175, 176, 177}, {178, 179, 180}, {181, 182, 183}, {184, 185, 186}, {187, 188, 189}, {190, 191, 192}, {193, 194, 195}, {196, 197, 198}, {199, 200, 201}, {202, 203, 204}, {205, 206, 207}, {208, 209, 210}, {211, 212, 213}, {214, 215, 216}, {217, 218, 219}, {220, 221, 222}, {223, 224, 225}, {226, 227, 228}, {229, 230, 231}, {232, 233, 234}, {235, 236, 237}, {238, 239, 240}, {241, 242, 243}, {244, 245, 246}, {247, 248, 249}, {250, 251, 252}, {253, 254, 255}, {256, 257, 258}, {259, 260, 261}, {262, 263, 264}, {265, 266, 267}, {268, 269, 270}, {271, 272, 273}, {274, 275, 276}, {277, 278, 279}, {280, 281, 282}, {283, 284, 285}, {286, 287, 288}, {289, 290, 291}, {292, 293, 294}, {295, 296, 297}, {298, 299, 300}];
succ =  [{29, 24, 20, 19, 13, 12, 10, 8}, {26, 23, 20, 19, 18, 17, 10}, {29, 25, 22, 20, 19, 8}, {35, 34, 33, 31, 29, 27, 26, 23, 21, 17}, {31, 26, 21, 18, 17, 10}, {34, 33, 27, 25, 22, 21, 20, 18}, {31, 8}, {38, 35, 34, 33, 27, 26, 21, 18}, {35, 32, 31, 27, 26, 17}, {35, 34, 33, 32, 28, 27, 25, 22}, {35, 27, 22, 21, 19}, {38, 35, 33, 32, 31, 30, 18}, {35, 33, 32, 26, 25, 23}, {35, 34, 32, 31, 27, 23}, {38, 35, 26, 25, 23}, {40, 39, 35, 32, 30, 23}, {37, 28, 25, 22}, {48, 44, 40, 39, 37, 36, 28}, {48, 44, 40, 38, 37, 36, 28}, {37, 36, 31, 28}, {46, 45, 43, 36, 32}, {48, 44, 43, 42, 41, 40, 39, 38, 36}, {48, 44, 36, 28}, {57, 48, 45, 44, 43, 40, 39, 37, 36}, {41, 39, 30}, {57, 53, 48, 47, 46, 45, 44, 40, 39, 37}, {57, 43, 30}, {51, 47, 46, 45, 43, 42, 41}, {48, 44, 42, 41, 36}, {49, 48, 47, 46, 45, 44, 42}, {53, 49, 48, 46, 45, 44, 39}, {62, 48, 44, 42, 41, 37}, {51, 48, 41, 36}, {55, 53, 47, 44, 43, 40}, {61, 57, 55, 54, 53, 52, 51, 47}, {54, 53, 52, 49, 47}, {55, 52, 51, 50, 49}, {67, 64, 63, 61, 60, 57, 56, 54, 53, 52}, {63, 62, 61, 60, 58, 56, 55, 54, 52}, {67, 63, 62, 61, 60, 58, 56, 54, 52}, {60, 57, 55, 52, 50}, {68, 65, 63, 60, 59, 56, 55, 53}, {71, 68, 65, 64, 59, 56, 49}, {64, 61, 52, 51, 50}, {67, 65, 63, 61, 60, 58, 56, 52}, {63, 62, 61, 60, 58, 54, 52}, {71, 62, 60, 58, 50}, {68, 65, 63, 60, 56, 55}, {67, 63, 61, 60, 58}, {67, 65, 63, 56}, {80, 76, 73, 71, 69, 68, 67, 59}, {80, 76, 73, 71, 69, 68, 59}, {80, 71, 70, 58}, {82, 80, 75, 73, 72, 68, 65}, {80, 76, 69, 67, 64}, {78, 76, 72, 70, 69, 66}, {66, 65}, {76, 72, 66}, {85, 78, 75, 72, 70}, {78, 72, 70, 69}, {78, 75, 70, 69}, {82, 78, 73, 70}, {90, 86, 84, 83, 80, 79, 78, 77, 74, 73}, {84, 83, 82, 78, 77, 75, 74, 73}, {78, 70, 69}, {84, 83, 82, 77, 75, 74, 73}, {85, 78, 70}, {85, 78, 70}, {90, 86, 85, 84, 83, 79, 77, 74}, {90, 86, 84, 83, 79, 77, 74}, {95, 93, 90, 86, 85, 84, 81, 78, 77}, {86, 79, 74}, {99, 93, 92, 87, 85, 81}, {99, 95, 93, 87, 81}, {93, 90, 89, 88, 79}, {84, 83, 79}, {100, 99, 97, 89, 88, 87}, {100, 99, 97, 92, 91, 87}, {100, 99, 92, 91, 87}, {99, 97, 87, 85}, {100, 94, 91, 88}, {99, 98, 95, 91}, {99, 88}, {98, 97, 96}, {98, 91}, {98, 91}, {98, 96}, {98, 96}, {91}, {91}, {96}, {96}, {98}, {96}, {97}, {}, {}, {}, {}, {}];
n_opt = 300;
dur = [1, 2, 10, 5, 6, 10, 4, 6, 10, 1, 9, 10, 2, 5, 8, 2, 7, 9, 4, 5, 9, 3, 4, 6, 2, 7, 10, 4, 9, 10, 4, 6, 9, 2, 4, 10, 1, 2, 3, 3, 3, 5, 3, 8, 9, 1, 6, 7, 1, 5, 8, 3, 4, 7, 1, 3, 8, 3, 6, 9, 2, 4, 5, 4, 5, 10, 2, 7, 8, 2, 6, 10, 2, 8, 8, 5, 8, 8, 6, 8, 9, 1, 7, 10, 1, 3, 10, 1, 5, 7, 5, 7, 7, 7, 8, 9, 2, 4, 10, 1, 4, 6, 4, 6, 10, 4, 9, 10, 1, 2, 5, 2, 3, 8, 4, 7, 10, 8, 9, 10, 3, 5, 7, 2, 9, 10, 2, 4, 4, 6, 7, 8, 3, 6, 6, 1, 9, 10, 8, 8, 9, 2, 5, 10, 1, 6, 7, 1, 2, 10, 2, 3, 9, 6, 7, 10, 5, 9, 10, 4, 6, 9, 5, 8, 10, 6, 7, 10, 1, 4, 4, 5, 6, 9, 2, 5, 6, 2, 2, 6, 4, 8, 10, 4, 4, 7, 5, 6, 10, 6, 9, 10, 2, 5, 6, 7, 8, 9, 5, 9, 10, 5, 7, 9, 3, 4, 8, 2, 5, 8, 7, 9, 10, 1, 2, 10, 7, 8, 9, 2, 6, 10, 1, 8, 10, 4, 6, 7, 1, 3, 9, 5, 8, 9, 3, 7, 7, 1, 8, 9, 2, 4, 9, 4, 9, 10, 4, 7, 8, 1, 7, 8, 6, 6, 7, 8, 8, 10, 2, 9, 10, 2, 5, 7, 9, 9, 10, 3, 4, 10, 2, 7, 8, 4, 6, 10, 2, 4, 6, 1, 5, 10, 2, 4, 7, 1, 3, 7, 1, 8, 9, 7, 8, 9, 4, 8, 10, 1, 3, 9];
rreq = [|3, 2, 2, 3, 3, 1, 3, 3, 3, 4, 2, 1, 3, 3, 3, 4, 4, 4, 2, 2, 2, 5, 3, 2, 1, 1, 1, 3, 2, 2, 5, 5, 5, 4, 2, 2, 3, 2, 2, 4, 4, 4, 2, 2, 1, 4, 4, 3, 3, 3, 3, 1, 1, 1, 5, 3, 2, 3, 1, 1, 2, 2, 2, 4, 3, 3, 4, 3, 2, 3, 2, 2, 3, 3, 1, 5, 4, 4, 2, 2, 2, 5, 2, 1, 5, 2, 2, 3, 2, 2, 3, 2, 2, 5, 3, 2, 5, 4, 3, 2, 2, 2, 3, 2, 1, 5, 4, 4, 3, 2, 2, 4, 3, 2, 3, 2, 1, 3, 2, 2, 4, 4, 4, 3, 2, 2, 5, 5, 5, 5, 5, 5, 3, 3, 2, 4, 4, 4, 2, 1, 1, 4, 4, 3, 4, 4, 4, 1, 1, 1, 4, 3, 2, 1, 1, 1, 4, 4, 4, 4, 2, 1, 5, 5, 5, 1, 1, 1, 2, 1, 1, 3, 2, 1, 3, 3, 3, 4, 2, 1, 3, 3, 2, 2, 2, 1, 5, 5, 5, 3, 3, 3, 4, 4, 2, 1, 1, 1, 1, 1, 1, 4, 3, 1, 3, 2, 1, 4, 3, 3, 1, 1, 1, 4, 3, 2, 4, 3, 3, 1, 1, 1, 3, 1, 1, 3, 2, 2, 4, 4, 4, 4, 2, 2, 4, 4, 3, 4, 2, 2, 3, 2, 2, 4, 3, 3, 4, 3, 3, 1, 1, 1, 4, 3, 3, 4, 4, 4, 4, 3, 3, 2, 2, 1, 4, 3, 1, 3, 3, 3, 3, 2, 2, 4, 4, 4, 3, 2, 2, 5, 4, 4, 5, 3, 2, 3, 3, 3, 3, 2, 2, 2, 2, 2, 3, 3, 2, 3, 3, 3
 |3, 3, 3, 4, 2, 2, 4, 3, 3, 5, 5, 5, 3, 3, 3, 4, 4, 4, 5, 5, 5, 3, 3, 3, 1, 1, 1, 4, 4, 3, 4, 2, 1, 3, 3, 3, 3, 3, 1, 4, 2, 2, 4, 3, 3, 3, 3, 3, 4, 3, 2, 4, 4, 4, 4, 4, 3, 2, 1, 1, 4, 3, 2, 4, 3, 3, 4, 4, 3, 4, 4, 4, 5, 2, 1, 4, 4, 3, 5, 5, 5, 2, 2, 2, 4, 4, 4, 2, 2, 2, 4, 3, 2, 5, 5, 5, 4, 4, 4, 3, 3, 2, 3, 2, 1, 3, 3, 1, 4, 3, 1, 4, 2, 2, 4, 4, 4, 3, 3, 1, 2, 2, 2, 5, 5, 5, 3, 3, 3, 4, 3, 2, 5, 3, 2, 2, 2, 1, 4, 3, 3, 4, 4, 4, 4, 4, 4, 4, 3, 3, 4, 4, 3, 4, 4, 4, 5, 4, 2, 4, 3, 3, 4, 4, 4, 2, 1, 1, 5, 3, 2, 4, 4, 3, 4, 3, 1, 3, 3, 2, 4, 3, 2, 3, 3, 2, 5, 5, 5, 3, 2, 2, 1, 1, 1, 4, 2, 2, 2, 2, 2, 4, 3, 3, 5, 4, 4, 5, 4, 3, 5, 4, 4, 1, 1, 1, 2, 1, 1, 3, 2, 2, 5, 4, 4, 3, 3, 1, 3, 2, 2, 2, 2, 2, 5, 5, 5, 2, 2, 2, 3, 2, 1, 4, 3, 3, 3, 3, 2, 4, 2, 2, 4, 4, 4, 4, 3, 2, 2, 2, 2, 5, 4, 3, 3, 3, 2, 3, 3, 2, 3, 2, 2, 1, 1, 1, 3, 2, 2, 3, 3, 3, 2, 2, 2, 4, 3, 3, 5, 4, 4, 2, 1, 1, 4, 4, 3, 4, 3, 3
 |0, 0, 4, 8, 6, 0, 10, 0, 6, 6, 3, 3, 0, 0, 0, 0, 5, 4, 0, 0, 0, 5, 5, 0, 8, 6, 0, 0, 0, 7, 0, 0, 0, 0, 0, 5, 8, 6, 3, 0, 6, 5, 0, 0, 0, 5, 0, 0, 4, 3, 0, 0, 0, 0, 5, 4, 4, 3, 3, 0, 0, 0, 0, 0, 7, 6, 3, 2, 0, 0, 0, 0, 6, 5, 0, 6, 5, 0, 4, 0, 0, 4, 3, 0, 0, 0, 0, 0, 0, 0, 0, 0, 1, 4, 0, 0, 0, 6, 0, 5, 3, 1, 8, 0, 0, 6, 0, 5, 8, 6, 4, 4, 4, 0, 6, 3, 1, 0, 0, 4, 0, 0, 1, 8, 8, 7, 0, 0, 2, 3, 0, 0, 0, 0, 5, 0, 0, 9, 0, 5, 0, 7, 6, 5, 9, 7, 0, 8, 0, 8, 8, 0, 2, 7, 6, 0, 9, 0, 8, 7, 6, 0, 0, 6, 5, 8, 6, 0, 9, 0, 9, 5, 5, 0, 7, 5, 3, 0, 2, 2, 0, 6, 5, 9, 0, 0, 0, 0, 3, 0, 11, 10, 8, 0, 0, 0, 3, 2, 0, 0, 5, 0, 4, 4, 0, 0, 0, 0, 7, 7, 0, 0, 0, 0, 0, 0, 5, 0, 3, 7, 7, 0, 10, 6, 0, 7, 6, 3, 0, 7, 0, 0, 0, 3, 0, 0, 4, 0, 0, 0, 0, 1, 1, 0, 0, 0, 9, 6, 4, 0, 0, 6, 10, 0, 0, 0, 8, 0, 7, 5, 3, 0, 0, 0, 2, 0, 0, 5, 3, 2, 6, 0, 0, 0, 0, 0, 0, 7, 0, 10, 10, 9, 7, 0, 7, 0, 4, 0, 8, 7, 0, 5, 5, 4, 0, 0, 0, 0, 5, 2
 |5, 4, 0, 0, 0, 3, 0, 5, 0, 0, 0, 0, 7, 4, 3, 9, 0, 0, 5, 4, 3, 0, 0, 7, 0, 0, 3, 9, 6, 0, 9, 8, 8, 7, 5, 0, 0, 0, 0, 9, 0, 0, 3, 3, 3, 0, 4, 4, 0, 0, 7, 3, 2, 1, 0, 0, 0, 0, 0, 3, 3, 2, 2, 7, 0, 0, 0, 0, 6, 9, 9, 8, 0, 0, 2, 0, 0, 9, 0, 3, 2, 0, 0, 6, 8, 6, 3, 7, 5, 4, 4, 4, 0, 0, 7, 5, 5, 0, 4, 0, 0, 0, 0, 2, 2, 0, 4, 0, 0, 0, 0, 0, 0, 1, 0, 0, 0, 8, 6, 0, 6, 5, 0, 0, 0, 0, 7, 6, 0, 0, 4, 4, 5, 3, 0, 9, 3, 0, 10, 0, 9, 0, 0, 0, 0, 0, 4, 0, 8, 0, 0, 5, 0, 0, 0, 2, 0, 1, 0, 0, 0, 4, 2, 0, 0, 0, 0, 6, 0, 3, 0, 0, 0, 3, 0, 0, 0, 6, 0, 0, 8, 0, 0, 0, 8, 7, 5, 4, 0, 8, 0, 0, 0, 3, 2, 6, 0, 0, 3, 2, 0, 9, 0, 0, 8, 7, 5, 8, 0, 0, 8, 9, 8, 9, 9, 8, 0, 6, 0, 0, 0, 7, 0, 0, 2, 0, 0, 0, 2, 0, 2, 2, 2, 0, 7, 6, 0, 1, 2, 1, 4, 0, 0, 4, 3, 2, 0, 0, 0, 6, 4, 0, 0, 6, 5, 8, 0, 5, 0, 0, 0, 5, 4, 3, 0, 3, 3, 0, 0, 0, 0, 9, 8, 10, 5, 4, 6, 0, 1, 0, 0, 0, 0, 3, 0, 7, 0, 3, 0, 0, 3, 0, 0, 0, 4, 3, 4, 8, 0, 0|];